\* Capstone_Teams_Problem *\
Maximize
Max_Student_Happiness: Preference_Vars_e116 + 2 Preference_Vars_e125
 + 3 Preference_Vars_e134 + 4 Preference_Vars_e143 + 5 Preference_Vars_e151
 + 2 Preference_Vars_e221 + 3 Preference_Vars_e235 + 4 Preference_Vars_e242
 + 5 Preference_Vars_e254 + 2 Preference_Vars_e325 + 3 Preference_Vars_e331
 + 4 Preference_Vars_e346 + 5 Preference_Vars_e352 + 2 Preference_Vars_e425
 + 3 Preference_Vars_e436 + 4 Preference_Vars_e444 + 5 Preference_Vars_e453
Subject To
_C1: Preference_Vars_e116 + Preference_Vars_e125 + Preference_Vars_e134
 + Preference_Vars_e143 + Preference_Vars_e151 <= 1
_C2: Preference_Vars_e116 + Preference_Vars_e125 + Preference_Vars_e134
 + Preference_Vars_e143 + Preference_Vars_e151 >= 0
_C3: Preference_Vars_e221 + Preference_Vars_e235 + Preference_Vars_e242
 + Preference_Vars_e254 <= 1
_C4: Preference_Vars_e221 + Preference_Vars_e235 + Preference_Vars_e242
 + Preference_Vars_e254 >= 0
_C5: Preference_Vars_e325 + Preference_Vars_e331 + Preference_Vars_e346
 + Preference_Vars_e352 <= 1
_C6: Preference_Vars_e325 + Preference_Vars_e331 + Preference_Vars_e346
 + Preference_Vars_e352 >= 0
_C7: Preference_Vars_e425 + Preference_Vars_e436 + Preference_Vars_e444
 + Preference_Vars_e453 <= 1
_C8: Preference_Vars_e425 + Preference_Vars_e436 + Preference_Vars_e444
 + Preference_Vars_e453 >= 0
Binaries
Preference_Vars_e116
Preference_Vars_e125
Preference_Vars_e134
Preference_Vars_e143
Preference_Vars_e151
Preference_Vars_e221
Preference_Vars_e235
Preference_Vars_e242
Preference_Vars_e254
Preference_Vars_e325
Preference_Vars_e331
Preference_Vars_e346
Preference_Vars_e352
Preference_Vars_e425
Preference_Vars_e436
Preference_Vars_e444
Preference_Vars_e453
End
